language ESSENCE' 1.0
$ Minion SolverNodes: 80800
$ Minion SolverTotalTime: 2.81604
$ Minion SolverTimeOut: 0
$ Savile Row TotalTime: 1.257
letting carrying be [3, 3, 4, 12, 12, 15, 18, 18, 36, 36, 54, 72, 90, 90]
letting registers be [[-1, 3, 3, 3, 3, 3, 3, 18, 18, 18, 18, 18, 18, 18]]
letting steps be [1, 4, 1, 1, 2, 5, 5, 4, 5, 2, 5, 5, 5, 2]
